46	98	49	21	20	13	81	77	66	82
66	31	48	49	99	75	47	73	73	40
26	28	96	57	26	21	99	90	21	39
53	78	5	98	4	71	34	72	24	15
46	85	44	31	90	94	2	42	60	25
18	4	69	15	15	28	43	60	70	98
80	47	21	22	49	73	2	66	46	56
35	35	5	67	80	47	36	20	18	99
28	1	86	89	22	6	9	62	99	16
55	47	49	73	53	14	94	95	46	22
